
# PYTHONPATH must include directory above plugin directory.
#     Define either externally or here, then import plugin.
sys.path.insert(0, './..')
import dsrgpt2_plug

molecule {
O
H 1 R
H 1 R 2 A

R = .9
A = 104.5
}

set {
  basis sto-3g
}

set dsrgpt2_plug {
  print 1
}

energy('dsrgpt2_plug')

dsrgpt2_plug.exampleFN()
