
# PYTHONPATH must include directory above plugin directory.
#     Define either externally or here, then import plugin.
sys.path.insert(0, './..')
import scf_plug

molecule {
O
H 1 R
H 1 R 2 A

R = .9
A = 104.5
}

set {
  basis sto-3g
}

set scf_plug {
  print 1
  cvg   0.0001
}

energy('scf_plug')

scf_plug.exampleFN()
